NAME          BLANK   
ROWS
 N  OBJROW
 L  xsum
COLUMNS
    x1        OBJROW    0.9            xsum      1.          
    x2        OBJROW    1.             xsum      1.          
    x3        OBJROW    1.1            xsum      1.          
RHS
    RHS       xsum      1.          
BOUNDS
 UP BOUND     x1        0.8         
 UP BOUND     x2        0.6         
 UP BOUND     x3        0.6         
ENDATA
